(set-logic BV)

(synth-inv inv_fun ((y (_ BitVec 32))(x (_ BitVec 32))))

(define-fun pre_fun ((y (_ BitVec 32)) (x (_ BitVec 32))) Bool
       ( and ( = x #x00000001 ) ( = y #x00000000 ) ))
(define-fun trans_fun ((y! (_ BitVec 32)) (x! (_ BitVec 32)) (y (_ BitVec 32)) (x (_ BitVec 32))) Bool
       ( and ( bvult y #x000186a0 ) ( = x! ( bvadd x y ) ) ( = y! ( bvadd y #x00000001 ) ) ))
(define-fun post_fun ((y (_ BitVec 32)) (x (_ BitVec 32))) Bool
       ( not ( and ( bvule #x000186a0 y ) ( not ( bvule y x ) ) ) ))

(inv-constraint inv_fun pre_fun trans_fun post_fun)

(check-synth)

